c NeuroCodeBench 2.0 CNF formula with verdict Unsat
p cnf 9 14
1 -4 8 0
-1 -3 -5 6 -9 0
-1 -3 -5 6 9 0
1 -4 -8 -9 0
1 -4 -8 9 -3 0
-1 -3 -5 -6 -9 2 0
-1 -3 -5 -6 -9 -2 0
-1 3 -9 0
1 -4 -8 9 3 0
-1 -3 -5 -6 9 0
-1 -3 5 0
1 4 5 0
1 4 -5 0
-1 3 9 0
